c generated by sgen
p cnf 57 124
-2 -3 -4 0
-1 -3 -4 0
-1 -2 -4 0
-1 -2 -3 0
-6 -7 -8 0
-5 -7 -8 0
-5 -6 -8 0
-5 -6 -7 0
-10 -11 -12 0
-9 -11 -12 0
-9 -10 -12 0
-9 -10 -11 0
-14 -15 -16 0
-13 -15 -16 0
-13 -14 -16 0
-13 -14 -15 0
-18 -19 -20 0
-17 -19 -20 0
-17 -18 -20 0
-17 -18 -19 0
-22 -23 -24 0
-21 -23 -24 0
-21 -22 -24 0
-21 -22 -23 0
-26 -27 -28 0
-25 -27 -28 0
-25 -26 -28 0
-25 -26 -27 0
-30 -31 -32 0
-29 -31 -32 0
-29 -30 -32 0
-29 -30 -31 0
-34 -35 -36 0
-33 -35 -36 0
-33 -34 -36 0
-33 -34 -35 0
-38 -39 -40 0
-37 -39 -40 0
-37 -38 -40 0
-37 -38 -39 0
-42 -43 -44 0
-41 -43 -44 0
-41 -42 -44 0
-41 -42 -43 0
-46 -47 -48 0
-45 -47 -48 0
-45 -46 -48 0
-45 -46 -47 0
-50 -51 -52 0
-49 -51 -52 0
-49 -50 -52 0
-49 -50 -51 0
-53 -54 -55 0
-53 -54 -56 0
-53 -54 -57 0
-53 -55 -56 0
-53 -55 -57 0
-53 -56 -57 0
-54 -55 -56 0
-54 -55 -57 0
-54 -56 -57 0
-55 -56 -57 0
23 7 42 0
51 7 42 0
51 23 42 0
51 23 7 0
22 35 20 0
26 35 20 0
26 22 20 0
26 22 35 0
15 55 24 0
46 55 24 0
46 15 24 0
46 15 55 0
53 17 5 0
29 17 5 0
29 53 5 0
29 53 17 0
14 44 9 0
36 44 9 0
36 14 9 0
36 14 44 0
13 50 31 0
40 50 31 0
40 13 31 0
40 13 50 0
32 47 12 0
28 47 12 0
28 32 12 0
28 32 47 0
38 6 33 0
45 6 33 0
45 38 33 0
45 38 6 0
37 10 4 0
21 10 4 0
21 37 4 0
21 37 10 0
25 39 41 0
56 39 41 0
56 25 41 0
56 25 39 0
48 43 18 0
2 43 18 0
2 48 18 0
2 48 43 0
11 49 19 0
57 49 19 0
57 11 19 0
57 11 49 0
27 1 16 0
8 1 16 0
8 27 16 0
8 27 1 0
30 34 54 0
30 34 52 0
30 34 3 0
30 54 52 0
30 54 3 0
30 52 3 0
34 54 52 0
34 54 3 0
34 52 3 0
54 52 3 0
